Input file: instance_10.lp
Input data:
num_squadre(2).
player(1, centrocampista, attaccante).
player(2, difensore, centrocampista).
player(3, portiere, difensore).
player(4, centrocampista, portiere).
player(5, difensore, attaccante).
player(6, centrocampista, difensore).
player(7, difensore, centrocampista).
player(8, portiere, centrocampista).
player(9, attaccante, centrocampista).
player(10, difensore, portiere).
player(11, attaccante, portiere).
player(12, difensore, attaccante).
player(13, centrocampista, portiere).
player(14, difensore, centrocampista).
different_team(1, 2).
different_team(7, 10).

Output Clingo:
clingo version 5.7.1
Reading from ...ed-Reasoning-Project\Clingo\implASP.lp ...
Solving...
Answer: 1
assigned(1,2,centrocampista) assigned(2,1,difensore) assigned(3,1,portiere) assigned(4,2,centrocampista) assigned(5,2,attaccante) assigned(6,2,difensore) assigned(7,2,centrocampista) assigned(8,2,portiere) assigned(9,2,attaccante) assigned(10,1,difensore) assigned(11,1,attaccante) assigned(12,2,attaccante) assigned(13,2,centrocampista) assigned(14,1,centrocampista) total_penalty(1)
Optimization: 1
Answer: 2
assigned(1,2,attaccante) assigned(2,1,centrocampista) assigned(3,2,difensore) assigned(4,2,centrocampista) assigned(5,1,difensore) assigned(6,1,difensore) assigned(7,1,centrocampista) assigned(8,2,portiere) assigned(9,1,attaccante) assigned(10,2,difensore) assigned(11,1,portiere) assigned(12,1,difensore) assigned(13,2,centrocampista) assigned(14,2,centrocampista) total_penalty(0)
Optimization: 0
Answer: 1
assigned(1,2,attaccante) assigned(2,1,centrocampista) assigned(3,2,portiere) assigned(4,2,centrocampista) assigned(5,1,difensore) assigned(6,1,difensore) assigned(7,1,centrocampista) assigned(8,2,centrocampista) assigned(9,1,attaccante) assigned(10,2,difensore) assigned(11,1,portiere) assigned(12,1,difensore) assigned(13,2,centrocampista) assigned(14,2,difensore) total_penalty(0)
Optimization: 0
OPTIMUM FOUND

Models       : 3+
  Optimum    : yes
Optimization : 0
Calls        : 1
Time         : 0.005s (Solving: 0.00s 1st Model: 0.00s Unsat: 0.00s)
CPU Time     : 0.000s

Tempo di esecuzione Clingo: 0.02 secondi
